980 1331
980 1467
1298 1583
1298 1611
1331 1004
1331 1163
1331 1339
1331 1789
942 917
942 954
942 1081
942 1848
1789 1004
1789 1163
1789 1339
1997 1985
1997 2122
1997 2237
1997 2542
2047 1985
2047 2053
2047 2071
2047 2231
2047 2403
1968 2389
3517 3449
1121 917
2300 1985
2300 2122
2300 2542
2393 1985
2393 2542
2542 1985
2542 2122
2542 2521
2542 2573
3021 3252
2231 2341
2874 2977
2053 1985
2053 2071
1583 1611
1467 1004
1467 1339
177 68
2829 3068
2122 1985
2122 2521
1081 917
917 954
917 1739
917 1848
2573 1985
1163 1004
1163 1580
716 820
2413 2389
3508 3728
1739 1065
2521 1985
2521 2237
1004 1339
1985 2237
